solution status: optimal solution found
objective value:                     119076.495892488
d11(0,0)                                            1 	(obj:0)
d11(1,1)                                            1 	(obj:0)
d11(2,4)                                            1 	(obj:0)
d11(2,7)                                            1 	(obj:0)
d11(2,8)                                            1 	(obj:0)
d11(2,10)                                           1 	(obj:0)
d11(2,11)                                           1 	(obj:0)
d11(3,13)                                           1 	(obj:0)
d11(3,14)                                           1 	(obj:0)
d11(3,15)                                           1 	(obj:0)
d11(3,16)                                           1 	(obj:0)
d11(3,17)                                           1 	(obj:0)
d11(3,18)                                           1 	(obj:0)
d11(3,19)                                           1 	(obj:0)
d11(3,20)                                           1 	(obj:0)
d11(3,21)                                           1 	(obj:0)
d11(3,22)                                           1 	(obj:0)
d11(3,23)                                           1 	(obj:0)
d11(3,24)                                           1 	(obj:0)
d11(3,25)                                           1 	(obj:0)
d11(3,26)                                           1 	(obj:0)
d11(3,27)                                           1 	(obj:0)
d11(3,28)                                           1 	(obj:0)
d11(3,29)                                           1 	(obj:0)
d11(3,30)                                           1 	(obj:0)
d11(3,31)                                           1 	(obj:0)
d11(3,32)                                           1 	(obj:0)
d11(3,33)                                           1 	(obj:0)
d11(3,34)                                           1 	(obj:0)
d11(3,35)                                           1 	(obj:0)
d11(3,36)                                           1 	(obj:0)
d11(3,37)                                           1 	(obj:0)
d11(3,38)                                           1 	(obj:0)
d11(3,39)                                           1 	(obj:0)
d12(1,3)                                            1 	(obj:0)
d12(2,6)                                            1 	(obj:0)
d12(2,9)                                            1 	(obj:0)
d12(2,12)                                           1 	(obj:0)
d21(3,13)                                           1 	(obj:0)
d21(3,14)                                           1 	(obj:0)
d21(3,15)                                           1 	(obj:0)
d21(3,16)                                           1 	(obj:0)
d21(3,17)                                           1 	(obj:0)
d21(3,19)                           0.999999999999998 	(obj:0)
d21(3,22)                                           1 	(obj:0)
d21(3,23)                                           1 	(obj:0)
d21(3,25)                                           1 	(obj:0)
d21(3,28)                                           1 	(obj:0)
d21(3,31)                                           1 	(obj:0)
STE(1,1)                             10595.2339966667 	(obj:0)
STE(0,0)                                        12600 	(obj:0)
STE(1,2)                                        11592 	(obj:0)
STE(1,3)                             12504.5633338499 	(obj:0)
STE(2,4)                             8590.46799333333 	(obj:0)
STE(2,5)                             9587.23399666668 	(obj:0)
STE(2,6)                             10499.7973305167 	(obj:0)
STE(2,7)                             9587.23399666665 	(obj:0)
STE(2,8)                             10583.9999999999 	(obj:0)
STE(2,9)                               11496.56333385 	(obj:0)
STE(2,10)                            10499.7973305165 	(obj:0)
STE(2,11)                            11496.5633338499 	(obj:0)
STE(2,12)                            12409.1266676999 	(obj:0)
STE(3,13)                            4653.90465948338 	(obj:0)
STE(3,14)                            5650.67066281667 	(obj:0)
STE(3,15)                            6868.12286615005 	(obj:0)
STE(3,16)                            5650.67066281673 	(obj:0)
STE(3,17)                            6647.43666615002 	(obj:0)
STE(3,18)                             7864.8888694834 	(obj:0)
STE(3,19)                            6563.23399666672 	(obj:0)
STE(3,20)                            7560.00000000001 	(obj:0)
STE(3,21)                            8777.45220333339 	(obj:0)
STE(3,22)                             5650.6706628167 	(obj:0)
STE(3,23)                            6647.43666614999 	(obj:0)
STE(3,24)                            7864.88886948337 	(obj:0)
STE(3,25)                            6647.43666614999 	(obj:0)
STE(3,26)                            7644.20266948328 	(obj:0)
STE(3,27)                            8861.65487281666 	(obj:0)
STE(3,28)                            7560.00000000004 	(obj:0)
STE(3,29)                            8556.76600333333 	(obj:0)
STE(3,30)                            9774.21820666671 	(obj:0)
STE(3,31)                            6563.23399666639 	(obj:0)
STE(3,32)                            7559.99999999986 	(obj:0)
STE(3,33)                            8777.45220333324 	(obj:0)
STE(3,34)                                        7560 	(obj:0)
STE(3,35)                            8556.76600333329 	(obj:0)
STE(3,36)                            9774.21820666667 	(obj:0)
STE(3,37)                            8472.56333384999 	(obj:0)
STE(3,38)                            9469.32933718328 	(obj:0)
STE(3,39)                            10686.7815405167 	(obj:0)
y1(3,23)                             1738.61759746499 	(obj:0)
y1(3,24)                             642.910614464951 	(obj:0)
y1(3,25)                             2635.70700046495 	(obj:0)
y1(3,26)                             1738.61759746499 	(obj:0)
y1(3,27)                             642.910614464951 	(obj:0)
y1(3,28)                             2635.70700046495 	(obj:0)
y1(3,29)                             1738.61759746499 	(obj:0)
y1(3,30)                             642.910614464951 	(obj:0)
y1(3,31)                             2635.70700046502 	(obj:0)
y1(3,32)                             1738.61759746499 	(obj:0)
y1(3,33)                             642.910614464951 	(obj:0)
y1(3,34)                             2635.70700046495 	(obj:0)
y1(3,35)                             1738.61759746499 	(obj:0)
y1(3,36)                             642.910614464951 	(obj:0)
y1(3,37)                             2635.70700046495 	(obj:0)
y1(3,38)                             1738.61759746499 	(obj:0)
y1(3,39)                             642.910614464951 	(obj:0)
BG(3)                                1860.59423592518 	(obj:10)
AVE(1)                               3199.95851117552 	(obj:0)
AVE(2)                               3265.15049132519 	(obj:0)
AVE(3)                               3291.35535332476 	(obj:0)
WG(1)                                3199.95851117552 	(obj:10)
WG(2)                                3265.15049132519 	(obj:10)
WG(3)                                3291.35535332476 	(obj:10)
BG(1)                                 177.89148882448 	(obj:10)
BG(2)                                 112.69950867481 	(obj:10)
y1(1,1)                              897.089402999993 	(obj:0)
y1(2,4)                              897.089403000015 	(obj:0)
y1(2,7)                              897.089403000015 	(obj:0)
y1(2,10)                             897.089403000087 	(obj:0)
y1(3,13)                             2635.70700046495 	(obj:0)
y1(3,14)                             1738.61759746499 	(obj:0)
y1(3,15)                             642.910614464951 	(obj:0)
y1(3,16)                             2635.70700046495 	(obj:0)
y1(3,17)                             1738.61759746499 	(obj:0)
y1(3,18)                             642.910614464951 	(obj:0)
y1(3,19)                             2635.70700046495 	(obj:0)
y1(3,20)                             1738.61759746499 	(obj:0)
y1(3,21)                             642.910614464951 	(obj:0)
y1(3,22)                             2635.70700046495 	(obj:0)
y2(1,3)                              960.592982999945 	(obj:0)
y2(2,6)                              960.592982999986 	(obj:0)
y2(2,9)                              960.592982999986 	(obj:0)
y2(2,12)                             960.592982999986 	(obj:0)
